solution status: time limit reached
objective value:                     6.99999997623602
shell_j_$_52                                        1 	(obj:0)
shell_j_$_44                                        1 	(obj:0)
shell_j_$_42                                        1 	(obj:0)
shell_j_$_54                                        1 	(obj:0)
shell_i_$_71                                        1 	(obj:0)
shell_j_$_73                                        1 	(obj:0)
shell_i_$_74                                        1 	(obj:0)
shell_j_$_62                                        1 	(obj:0)
shell_j_$_41                                        1 	(obj:0)
shell_i_$_75                                        1 	(obj:0)
shell_i_$_47                                        1 	(obj:0)
shell_i_$_37                                        1 	(obj:0)
shell_j_$_69                                        1 	(obj:0)
shell_i_$_38                                        1 	(obj:0)
shell_i_$_72                                        1 	(obj:0)
shell_j_$_72                                        1 	(obj:0)
shell_j_$_48                                        1 	(obj:0)
shell_j_$_45                                        1 	(obj:0)
shell_j_$_53                                        1 	(obj:0)
shell_j_$_55                                        1 	(obj:0)
shell_j_$_70                                        1 	(obj:0)
shell_j_$_63                                        1 	(obj:0)
$_41_z                                             25 	(obj:0)
$_54_y                                              6 	(obj:0)
$_54_z                               22.0000000102075 	(obj:0)
$_75_x                                              6 	(obj:0)
$_75_y                                              5 	(obj:0)
$_75_z                                             24 	(obj:0)
$_44_y                                              6 	(obj:0)
$_44_z                               23.9999999990822 	(obj:0)
$_47_x                                              6 	(obj:0)
$_47_y                               4.00000000019846 	(obj:0)
$_47_z                                             24 	(obj:0)
$_71_x                                              6 	(obj:0)
$_71_y                                              5 	(obj:0)
$_37_x                                              6 	(obj:0)
$_37_y                                              6 	(obj:0)
$_37_z                                             25 	(obj:0)
$_71_z                                             25 	(obj:0)
$_52_z                                             20 	(obj:0)
$_69_x                               4.00000001095524 	(obj:0)
$_69_y                                              6 	(obj:0)
$_69_z                                             24 	(obj:0)
$_52_x                                              6 	(obj:0)
$_73_x                                              6 	(obj:0)
$_38_x                                              6 	(obj:0)
$_38_y                                              6 	(obj:0)
$_38_z                                             24 	(obj:0)
$_73_y                                              6 	(obj:0)
$_73_z                                             23 	(obj:0)
$_72_x                                              6 	(obj:0)
$_72_y                                              6 	(obj:0)
$_72_z                                             22 	(obj:0)
$_42_x                                              3 	(obj:0)
$_42_y                                              6 	(obj:0)
$_48_x                                              5 	(obj:0)
$_48_y                                              6 	(obj:0)
$_48_z                               23.9999999954774 	(obj:0)
$_74_x                                              6 	(obj:0)
$_74_y                                              5 	(obj:0)
$_45_x                                              1 	(obj:0)
$_45_y                                              6 	(obj:0)
$_45_z                                             25 	(obj:0)
$_74_z                               22.9999999927017 	(obj:0)
$_42_z                                             24 	(obj:0)
$_53_x                               5.00000002150563 	(obj:0)
$_53_y                                              6 	(obj:0)
$_53_z                                             21 	(obj:0)
$_52_y                                              6 	(obj:0)
$_62_x                                              5 	(obj:0)
$_55_x                                              5 	(obj:0)
$_55_y                                              6 	(obj:0)
$_55_z                               23.0000000050852 	(obj:0)
$_62_y                                              6 	(obj:0)
$_62_z                                             25 	(obj:0)
$_70_x                                              3 	(obj:0)
$_70_y                                              6 	(obj:0)
$_70_z                                             25 	(obj:0)
$_44_x                                              2 	(obj:0)
$_54_x                                              5 	(obj:0)
$_63_x                                              4 	(obj:0)
$_63_y                                              6 	(obj:0)
$_63_z                                             25 	(obj:0)
$_41_x                                              2 	(obj:0)
$_41_y                                              6 	(obj:0)
x111                             1.36322008632482e-09 	(obj:1)
x117                                0.999999985234309 	(obj:1)
x119                                                1 	(obj:1)
x129                                 1.00000000564343 	(obj:1)
x140                                 1.99999999766597 	(obj:1)
x151                                 1.99999998448659 	(obj:1)
x165                             3.58245080336427e-09 	(obj:1)
x169                             -1.73994290624229e-09 	(obj:1)
